# 22340
param k := 6;
param n := 50;
param s := 1;
set E :=  (0,2) (0,9) (1,23) (1,29) (2,26) (2,28) (3,10) (3,26) (4,6) (4,11) (5,11) (5,18) (5,49) (6,17) (6,33) (6,35) (7,9) (7,37) (8,12) (8,27) (8,31) (10,19) (10,41) (11,20) (11,25) (11,31) (12,32) (12,38) (12,44) (13,29) (13,40) (13,43) (14,16) (14,21) (14,43) (14,47) (15,34) (15,45) (17,46) (18,48) (20,31) (20,47) (21,46) (22,36) (22,47) (23,41) (23,42) (23,43) (23,44) (24,35) (24,43) (25,45) (26,29) (26,30) (26,39) (27,28) (27,30) (28,32) (28,43) (28,46) (29,45) (33,38) (34,43) (39,40) (39,43) (39,44) (39,47) (40,45) (42,47) (43,44);